NAME : mini-n18-k5
COMMENT : Instância média CVRP para teste rápido >>CRIADA PELOS ALUNOS<<
TYPE : CVRP
DIMENSION : 18
EDGE_WEIGHT_TYPE : EUC_2D
CAPACITY : 60
NODE_COORD_SECTION
 1 40 40
 2 25 45
 3 20 60
 4 50 60
 5 65 55
 6 70 40
 7 55 25
 8 45 20
 9 30 25
 10 20 35
 11 10 50
 12 15 65
 13 60 65
 14 75 55
 15 80 40
 16 65 30
 17 55 15
 18 35 15
DEMAND_SECTION
 1 0
 2 10
 3 20
 4 15
 5 8
 6 14
 7 7
 8 16
 9 12
 10 9
 11 5
 12 13
 13 10
 14 12
 15 18
 16 9
 17 6
 18 11
DEPOT_SECTION
 1
 -1
EOF
